start = 1;
limit = 6;
n = 14;
m=[|-1,-1,-1,-1,-1,-1,-1,-1,-1,9,0,-1,-1,7,
|-1,-1,-1,-1,-1,2,-1,-1,-1,19,16,-1,-1,-1,
|15,6,-1,-1,8,-1,-1,1,1,-1,20,-1,-1,3,
|8,-1,13,-1,-1,10,-1,15,-1,12,11,-1,-1,-1,
|16,-1,12,11,-1,-1,5,-1,-1,-1,-1,3,1,-1,
|-1,2,5,-1,20,-1,19,-1,19,-1,-1,1,15,5,
|11,-1,-1,-1,3,5,-1,10,1,-1,7,20,-1,20,
|-1,-1,-1,-1,-1,15,-1,-1,4,8,-1,9,16,-1,
|5,-1,-1,-1,-1,15,-1,-1,-1,-1,-1,-1,9,-1,
|18,11,5,-1,-1,13,19,-1,-1,-1,-1,8,11,-1,
|-1,-1,4,-1,5,15,-1,-1,14,1,-1,2,3,4,
|16,15,-1,-1,19,-1,15,-1,-1,0,16,-1,-1,-1,
|-1,3,5,13,-1,9,4,-1,-1,5,13,16,-1,13,
|5,-1,-1,15,17,10,12,5,5,-1,13,-1,-1,-1,
|]
;